[2026-03-01T01:40:14] Logging to: /run/media/saveas/Secondary-Storage/Masters/CS234/CS234_Reinforcement_Learning/Final Project/CS234_Final_Project/results/trajectory_optimization/nlp/TRACK3_300m/base/run_trajopt_demo_output.log
======================================================================
IPOPT TRAJECTORY OPTIMIZATION DEMO (SINGLE STAGE)
======================================================================

1. Loading track: /run/media/saveas/Secondary-Storage/Masters/CS234/CS234_Reinforcement_Learning/Final Project/CS234_Final_Project/maps/TRACK3_300m.mat
   Track length: 300.0 m

2. Creating vehicle model...
   Vehicle: SingleTrackModel(VW_Golf_GTI, weight_transfer=enabled)

3. Loaded obstacles from map: 0

4. Setup:
   N = 120
   ds = 2.50 m
   Obstacle subsamples/segment = 7
   Obstacle enforce midpoints = False
   Obstacle use slack = False
   Track buffer = 0.00 m
   lambda_u = 0.005
   vehicle_radius_m = 0.00
   eps_s = 0.100, eps_kappa = 0.050
   Solver path = Python/CasADi (IPOPT)

======================================================================
SINGLE STAGE: COMBINED OBJECTIVE (ACCEPTANCE-GATED)
======================================================================
Acceptance gates: success=True, max_slack<=0.000e+00, min_clearance>=-0.0010 m
Acceptance policy: practical epsilon mode (allows tiny negative dense clearance).
Initializer: obstacle_aware_init=True, sigma=8.00 m, margin=0.30 m

Attempt 1/4: baseline
  N=120, ds=2.500 m, subsamples=7, obstacle_clearance_m=0.000

******************************************************************************
This program contains Ipopt, a library for large-scale nonlinear optimization.
 Ipopt is released as open source code under the Eclipse Public License (EPL).
         For more information visit https://github.com/coin-or/Ipopt
******************************************************************************

This is Ipopt version 3.14.11, running with linear solver MUMPS 5.4.1.

Number of nonzeros in equality constraint Jacobian...:    13219
Number of nonzeros in inequality constraint Jacobian.:     1694
Number of nonzeros in Lagrangian Hessian.............:     5080

Total number of variables............................:     1210
                     variables with only lower bounds:        0
                variables with lower and upper bounds:        0
                     variables with only upper bounds:        0
Total number of equality constraints.................:      970
Total number of inequality constraints...............:     1331
        inequality constraints with only lower bounds:      847
   inequality constraints with lower and upper bounds:        0
        inequality constraints with only upper bounds:      484

iter    objective    inf_pr   inf_du lg(mu)  ||d||  lg(rg) alpha_du alpha_pr  ls
   0  3.0000000e+01 6.41e-01 1.05e+00  -1.0 0.00e+00    -  0.00e+00 0.00e+00   0
   1  2.9963214e+01 5.62e-01 1.12e+02  -1.0 8.62e+00   2.0 6.75e-01 1.25e-01h  4
   2  2.9958163e+01 5.27e-01 1.08e+03  -1.0 7.51e+00   3.3 8.43e-01 6.25e-02h  5
   3  2.9958161e+01 5.27e-01 1.10e+03  -1.0 7.96e+00   3.8 5.26e-01 4.45e-04h 11
   4  2.9958039e+01 5.11e-01 4.37e+03  -1.0 7.02e+00   4.2 1.00e+00 3.12e-02h  6
   5  2.9959109e+01 4.95e-01 1.29e+04  -1.0 6.87e+00   4.6 1.00e+00 3.12e-02h  6
   6  2.9963297e+01 4.64e-01 5.66e+04  -1.0 6.70e+00   5.0 1.00e+00 6.25e-02h  5
   7  2.9971339e+01 4.35e-01 1.65e+05  -1.0 6.29e+00   5.5 1.00e+00 6.25e-02h  5
   8  2.9974402e+01 4.31e-01 1.70e+05  -1.0 7.87e+00   5.0 1.00e+00 8.67e-03h  7
   9  3.0002113e+01 3.78e-01 3.32e+05  -1.0 5.82e+00   5.4 1.00e+00 1.25e-01h  4
iter    objective    inf_pr   inf_du lg(mu)  ||d||  lg(rg) alpha_du alpha_pr  ls
  10  3.0014280e+01 3.70e-01 3.35e+05  -1.0 6.03e+00   4.9 1.00e+00 2.18e-02h  6
  11  3.0355151e+01 6.75e+00 5.94e+06  -1.0 4.71e+00   5.4 1.00e+00 1.00e+00w  1
  12  3.0364634e+01 1.11e+01 1.85e+07  -1.0 8.57e-01   5.8 2.84e-01 1.00e+00w  1
  13  3.0354853e+01 7.15e+00 1.19e+08  -1.0 4.68e+00   6.2 6.43e-01 2.11e-01w  1
  14  3.0056692e+01 4.72e-01 4.26e+05  -1.0 5.38e-01   6.6 1.00e+00 1.25e-01h  3
  15  3.0088773e+01 5.22e-01 1.08e+06  -1.0 3.97e+00   6.2 1.00e+00 1.25e-01h  4
  16  3.0391789e+01 1.80e+00 4.93e+06  -1.0 3.57e+00   5.7 1.00e+00 7.84e-01H  1
  17  3.0449119e+01 3.26e+00 2.52e+07  -1.0 1.20e+00   6.1 3.91e-02 5.00e-01h  2
  18  3.0545439e+01 3.51e+00 3.56e+07  -1.0 7.28e-01   5.6 1.00e+00 1.00e+00h  1
  19  3.0576984e+01 1.01e+00 9.91e+06  -1.0 8.16e-01   5.2 1.00e+00 1.00e+00h  1
iter    objective    inf_pr   inf_du lg(mu)  ||d||  lg(rg) alpha_du alpha_pr  ls
  20  3.0592116e+01 8.13e-02 8.84e+05  -1.0 2.73e-01   4.7 1.00e+00 1.00e+00h  1
  21  3.0592077e+01 8.87e-03 5.05e+03  -1.0 8.69e-03   4.2 1.00e+00 1.00e+00h  1
  22  3.0592055e+01 1.43e-04 1.17e+02  -1.0 7.03e-04   3.7 1.00e+00 1.00e+00h  1
  23  3.0592040e+01 6.42e-08 1.00e-01  -1.0 5.73e-05   3.2 1.00e+00 1.00e+00h  1
  24  3.0592015e+01 9.14e-09 1.42e-02  -2.5 2.43e-05   2.8 1.00e+00 1.00e+00h  1
  25  3.0591944e+01 7.65e-08 1.39e-02  -3.8 7.12e-05   2.3 1.00e+00 1.00e+00h  1
  26  3.0591730e+01 6.87e-07 1.39e-02  -3.8 2.13e-04   1.8 1.00e+00 1.00e+00h  1
  27  3.0591090e+01 6.16e-06 1.38e-02  -3.8 6.40e-04   1.3 1.00e+00 1.00e+00h  1
  28  3.0589168e+01 5.46e-05 1.38e-02  -3.8 1.92e-03   0.9 1.00e+00 1.00e+00h  1
  29  3.0583412e+01 4.69e-04 1.38e-02  -3.8 5.75e-03   0.4 1.00e+00 1.00e+00h  1
iter    objective    inf_pr   inf_du lg(mu)  ||d||  lg(rg) alpha_du alpha_pr  ls
  30  3.0566210e+01 3.56e-03 1.38e-02  -3.8 1.72e-02  -0.1 1.00e+00 1.00e+00h  1
  31  3.0515121e+01 1.66e-02 1.40e-02  -3.8 5.25e-02  -0.6 1.00e+00 1.00e+00h  1
  32  3.0364658e+01 6.19e-02 1.50e-02  -3.8 1.69e-01  -1.1 1.00e+00 1.00e+00h  1
  33  2.9926457e+01 1.54e+00 3.46e-02  -3.8 4.86e-01  -1.5 1.00e+00 1.00e+00h  1
  34  2.8986395e+01 2.89e+00 3.50e-01  -3.8 1.18e+00  -2.0 1.00e+00 7.98e-01h  1
  35  2.8023452e+01 2.34e+00 2.11e-01  -3.8 2.85e+00  -2.5 1.05e-01 3.38e-01h  1
  36  2.7742860e+01 1.88e+00 1.11e-01  -3.8 1.25e+00  -2.1 1.00e+00 2.80e-01h  1
  37  2.7227929e+01 1.38e+01 9.72e-02  -3.8 3.38e+01  -2.5 1.30e-01 1.84e-01h  1
  38  2.7069499e+01 1.35e+01 9.46e-02  -3.8 6.18e+00  -3.0 2.00e-02 2.69e-02h  1
  39  2.6998618e+01 1.31e+01 9.21e-02  -3.8 6.96e+00  -2.6 7.91e-02 2.75e-02h  1
iter    objective    inf_pr   inf_du lg(mu)  ||d||  lg(rg) alpha_du alpha_pr  ls
  40  2.6595106e+01 1.23e+01 8.66e-02  -3.8 7.07e+00  -3.1 3.00e-01 6.53e-02h  1
  41  2.5957161e+01 9.26e+00 8.97e-01  -3.8 5.88e+00  -2.6 5.66e-01 2.44e-01h  1
  42  2.4114064e+01 6.34e+00 5.86e-01  -3.8 5.83e+00  -3.1 7.37e-01 3.17e-01h  1
  43  2.4023327e+01 1.02e+01 5.55e-01  -3.8 6.05e+01  -2.7 3.20e-02 5.32e-02h  1
  44  2.4090119e+01 1.23e+01 5.86e+00  -3.8 4.78e+00  -1.4 3.58e-02 4.76e-01h  1
  45  2.4092902e+01 1.21e+01 7.48e+00  -3.8 1.53e+01  -0.9 3.78e-04 1.44e-02h  1
  46  2.4099033e+01 1.14e+01 6.96e+00  -3.8 5.54e+00  -0.5 6.22e-03 6.18e-02h  1
  47  2.4100590e+01 1.13e+01 6.87e+00  -3.8 6.97e+00  -0.1 6.06e-02 1.23e-02h  1
  48  2.4104589e+01 1.10e+01 6.67e+00  -3.8 6.98e+00  -0.6 2.11e-02 2.49e-02h  1
  49  2.4107410e+01 1.08e+01 6.53e+00  -3.8 6.73e+00  -0.1 3.96e-02 1.59e-02h  1
iter    objective    inf_pr   inf_du lg(mu)  ||d||  lg(rg) alpha_du alpha_pr  ls
  50  2.4109058e+01 1.07e+01 6.47e+00  -3.8 6.80e+00  -0.6 1.08e-02 8.73e-03h  1
  51  2.4120865e+01 1.01e+01 5.61e+00  -3.8 6.63e+00  -0.2 2.13e-01 6.28e-02h  1
  52  2.4144131e+01 8.91e+00 5.32e+01  -3.8 6.06e+00   0.2 1.06e-01 1.16e-01h  1
  53  2.4144692e+01 8.88e+00 5.26e+01  -3.8 1.07e+01   0.7 1.71e-01 3.57e-03h  1
  54  2.4159516e+01 8.24e+00 8.34e+01  -3.8 5.57e+00   1.1 6.88e-01 7.26e-02h  1
  55  2.4165061e+01 8.09e+00 8.44e+01  -3.8 5.29e+00   0.6 1.41e-01 1.81e-02h  5
  56  2.4220398e+01 6.68e+00 1.42e+03  -3.8 5.09e+00   1.0 3.41e-01 1.78e-01h  1
  57  2.4241606e+01 5.86e+00 1.20e+03  -3.8 2.72e+00   1.5 4.24e-01 1.25e-01h  4
  58  2.4372874e+01 4.14e+00 4.03e+02  -3.8 3.67e+00   1.0 5.36e-03 5.26e-01h  1
  59  2.4510715e+01 7.09e+00 1.08e+02  -3.8 3.38e+00   0.5 3.40e-01 8.68e-01h  1
iter    objective    inf_pr   inf_du lg(mu)  ||d||  lg(rg) alpha_du alpha_pr  ls
  60  2.4510711e+01 7.09e+00 1.07e+02  -3.8 9.23e+00   0.0 7.71e-03 3.06e-05h  1
  61  2.4515116e+01 6.36e+00 8.44e+01  -3.8 2.41e+00   0.5 1.00e+00 1.10e-01h  3
  62  2.4516142e+01 6.01e+00 7.95e+01  -3.8 2.20e+00   1.8 4.49e-02 5.75e-02h  4
  63  2.4518222e+01 5.66e+00 1.07e+02  -3.8 2.77e+00   1.3 1.10e-01 4.37e-02H  1
  64  2.4577263e+01 2.70e+00 1.21e+02  -3.8 1.97e+00   0.8 6.30e-04 1.00e+00h  1
  65  2.4577360e+01 2.69e+00 1.21e+02  -3.8 1.54e+00   1.3 1.07e-01 2.02e-03h  1
  66  2.4577385e+01 2.69e+00 1.21e+02  -3.8 1.37e+00   0.8 7.74e-01 3.56e-04h  1
  67  2.4596015e+01 2.50e+00 3.70e+02  -3.8 1.37e+00   1.2 1.00e+00 3.92e-01h  1
  68  2.4644065e+01 1.31e+00 1.96e+02  -3.8 9.81e-01   0.7 1.00e+00 5.57e-01h  1
  69  2.4716883e+01 1.96e-01 4.94e+01  -3.8 8.32e-01   0.3 1.00e+00 1.00e+00h  1
iter    objective    inf_pr   inf_du lg(mu)  ||d||  lg(rg) alpha_du alpha_pr  ls
  70  2.4718131e+01 2.14e-02 2.71e+00  -3.8 4.33e-02   0.7 9.73e-01 1.00e+00h  1
  71  2.4713467e+01 1.26e-02 1.02e+00  -3.8 9.06e-02   0.2 1.00e+00 1.00e+00f  1
  72  2.4697583e+01 1.69e-03 7.29e-02  -3.8 1.93e-02  -0.3 1.00e+00 1.00e+00h  1
  73  2.4651483e+01 9.62e-03 1.14e-02  -3.8 5.57e-02  -0.7 1.00e+00 1.00e+00h  1
  74  2.4527667e+01 4.83e-02 1.08e-02  -3.8 1.38e-01  -1.2 1.00e+00 1.00e+00h  1
  75  2.4217764e+01 2.33e-01 1.52e-01  -3.8 3.87e-01  -1.7 1.00e+00 1.00e+00h  1
  76  2.3900341e+01 4.64e-01 9.40e-02  -3.8 1.05e+00  -2.2 1.00e+00 4.33e-01h  1
  77  2.3872849e+01 4.20e-01 8.39e-02  -3.8 5.06e-01  -1.7 8.54e-01 1.09e-01h  1
  78  2.3445666e+01 1.03e+00 5.68e-02  -3.8 1.17e+00  -2.2 1.00e+00 6.85e-01h  1
  79  2.3404762e+01 8.12e-01 3.62e-02  -3.8 7.15e-01  -1.8 1.00e+00 2.15e-01h  1
iter    objective    inf_pr   inf_du lg(mu)  ||d||  lg(rg) alpha_du alpha_pr  ls
  80  2.3104184e+01 1.44e+00 4.47e-02  -3.8 1.44e+00  -2.3 1.00e+00 5.53e-01h  1
  81  2.2922104e+01 1.27e+00 3.18e-02  -3.8 5.36e-01  -1.9 1.00e+00 1.00e+00h  1
  82  2.2857791e+01 1.26e+00 3.01e-02  -3.8 4.14e-01  -1.4 1.00e+00 1.00e+00h  1
  83  2.2833979e+01 7.58e-01 5.26e-02  -3.8 3.33e-01  -1.0 6.12e-01 1.00e+00h  1
  84  2.2757663e+01 2.43e-01 7.18e-03  -3.8 2.16e-01  -1.5 1.00e+00 1.00e+00h  1
  85  2.2539389e+01 5.17e-01 4.37e-03  -3.8 3.93e-01  -2.0 1.00e+00 1.00e+00h  1
  86  2.2169054e+01 1.26e+00 1.77e-02  -3.8 1.65e+00  -2.4 1.00e+00 6.58e-01h  1
  87  2.1978303e+01 1.15e+00 3.37e-02  -3.8 3.18e+00  -2.9 5.30e-01 1.56e-01h  1
  88  2.1797914e+01 1.48e+00 1.97e-02  -3.8 5.51e+00  -3.4 6.35e-02 8.30e-02h  1
  89  2.1547204e+01 1.36e+00 5.69e-02  -3.8 3.61e+00  -3.0 1.27e-01 2.55e-01h  1
iter    objective    inf_pr   inf_du lg(mu)  ||d||  lg(rg) alpha_du alpha_pr  ls
  90  2.1313860e+01 1.47e+00 2.01e-02  -3.8 1.68e+00  -2.5 5.91e-01 6.26e-01h  1
  91  2.1165082e+01 4.41e+00 1.94e-02  -3.8 1.41e+01  -3.0 1.23e-01 1.74e-01h  1
  92  2.1059055e+01 5.79e+00 9.70e-02  -3.8 8.08e+01  -3.5 4.14e-02 5.40e-02h  1
  93  2.1060410e+01 5.31e+00 8.94e-02  -3.8 2.84e+00  -1.3 3.59e-03 8.23e-02h  1
  94  2.1061407e+01 5.19e+00 8.73e-02  -3.8 2.35e+00  -0.8 8.65e-02 2.38e-02h  1
  95  2.1068233e+01 4.61e+00 6.37e-01  -3.8 2.44e+00  -0.4 6.01e-02 1.20e-01h  1
  96  2.1071272e+01 4.38e+00 4.53e-01  -3.8 2.01e+00   0.0 1.23e-01 5.13e-02h  1
  97  2.1075624e+01 4.03e+00 4.01e-01  -3.8 2.18e+00  -0.5 3.62e-01 7.96e-02h  1
  98  2.1084902e+01 3.29e+00 3.28e-01  -3.8 2.00e+00  -0.9 4.21e-01 1.83e-01h  1
  99  2.1093124e+01 2.74e+00 5.26e-01  -3.8 1.60e+00  -0.5 6.75e-01 1.68e-01h  1
iter    objective    inf_pr   inf_du lg(mu)  ||d||  lg(rg) alpha_du alpha_pr  ls
 100  2.1128269e+01 4.68e+00 1.20e+00  -3.8 1.31e+00  -1.0 8.06e-01 1.00e+00h  1
 101  2.1130294e+01 1.39e+00 8.58e+01  -3.8 2.39e+00   0.3 3.90e-01 4.42e-01h  1
 102  2.1129810e+01 1.28e+00 7.88e+01  -3.8 5.31e-01   1.7 4.12e-01 8.29e-02h  1
 103  2.1129775e+01 5.46e+00 3.61e+01  -3.8 5.03e-01   1.2 1.96e-01 1.00e+00h  1
 104  2.1129946e+01 4.95e+00 8.84e+01  -3.8 2.90e+00   2.5 1.00e+00 8.84e-02h  1
 105  2.1131177e+01 3.12e+00 2.60e+05  -3.8 2.59e+00   3.9 1.00e+00 3.18e-01h  1
 106  2.1131178e+01 3.12e+00 2.60e+05  -3.8 6.81e-01   5.2 1.59e-01 3.45e-04h  1
 107  2.1131145e+01 2.89e+00 2.40e+05  -3.8 7.41e-01   5.6 1.00e+00 7.75e-02h  1
 108  2.1133757e+01 2.40e+00 9.15e+05  -3.8 4.46e-01   6.0 1.00e+00 1.00e+00h  1
 109  2.1133259e+01 2.48e+00 8.34e+05  -3.8 4.76e-01   6.5 1.06e-01 4.51e-02H  1
iter    objective    inf_pr   inf_du lg(mu)  ||d||  lg(rg) alpha_du alpha_pr  ls
 110  2.1130791e+01 1.36e+00 2.12e+06  -3.8 6.87e-01   6.0 9.75e-01 5.00e-01h  2
 111  2.1130803e+01 1.35e+00 2.11e+06  -3.8 1.98e+00   6.4 4.46e-02 1.10e-03H  1
 112  2.1130803e+01 1.35e+00 2.11e+06  -3.8 2.96e-01   6.8 2.13e-01 1.43e-05h  1
 113  2.1131950e+01 2.78e+00 2.18e+07  -3.8 1.52e+00   6.4 3.91e-01 1.65e-01f  3
 114  2.1132363e+01 2.15e+00 8.31e+06  -3.8 8.33e-01   6.8 7.19e-01 1.00e+00f  1
 115  2.1132194e+01 2.07e+00 7.97e+06  -3.8 5.11e-01   7.2 1.00e+00 3.97e-02h  1
 116  2.1132120e+01 2.17e+00 7.75e+06  -3.8 4.43e+00   6.7 2.85e-01 2.89e-02h  4
 117  2.1131847e+01 2.03e+00 1.03e+07  -3.8 1.36e+00   8.1 7.56e-01 6.58e-02h  2
 118  2.1129279e+01 5.29e+00 1.39e+09  -3.8 1.30e+00   7.6 1.00e+00 1.00e+00h  1
 119  2.1129656e+01 3.40e+00 8.76e+08  -3.8 2.77e+00   7.1 1.00e+00 3.50e-01h  1
iter    objective    inf_pr   inf_du lg(mu)  ||d||  lg(rg) alpha_du alpha_pr  ls
 120  2.1130576e+01 3.17e+00 2.07e+08  -3.8 1.35e+00   6.6 1.00e+00 1.00e+00h  1
 121  2.1130411e+01 9.93e-01 1.79e+08  -3.8 1.04e-01   8.9 1.00e+00 1.00e+00h  1
 122  2.1130410e+01 9.71e-01 1.74e+08  -3.8 9.20e-02   8.4 1.00e+00 2.11e-02h  1
 123  2.1130300e+01 4.19e-01 8.53e+08  -3.8 2.01e-01   7.9 1.00e+00 1.00e+00h  1
 124  2.1130310e+01 3.80e-01 7.72e+08  -3.8 2.28e-02   9.2 1.00e+00 9.41e-02h  1
 125  2.1130423e+01 5.08e-02 1.10e+08  -3.8 2.08e-02   8.8 1.00e+00 1.00e+00h  1
 126  2.1130431e+01 5.41e-04 8.08e+05  -3.8 4.19e-03   8.3 1.00e+00 1.00e+00h  1
 127  2.1130431e+01 8.19e-08 2.91e+03  -3.8 2.49e-05   7.8 1.00e+00 1.00e+00h  1
 128  2.1130431e+01 2.34e-13 4.87e+00  -3.8 2.27e-07   7.3 1.00e+00 1.00e+00f  1
 129  2.1130431e+01 1.59e-12 4.22e+00  -3.8 5.90e-07   6.9 1.00e+00 1.00e+00f  1
iter    objective    inf_pr   inf_du lg(mu)  ||d||  lg(rg) alpha_du alpha_pr  ls
 130  2.1130431e+01 1.76e-12 1.48e+00  -3.8 6.22e-07   6.4 1.00e+00 1.00e+00f  1
 131  2.1130432e+01 9.71e-12 1.16e+00  -3.8 1.46e-06   5.9 1.00e+00 1.00e+00f  1
 132  2.1130432e+01 1.81e-11 5.27e-01  -3.8 1.99e-06   5.4 1.00e+00 1.00e+00f  1
 133  2.1130432e+01 7.31e-11 3.53e-01  -3.8 4.00e-06   4.9 1.00e+00 1.00e+00f  1
 134  2.1130432e+01 1.78e-10 1.83e-01  -3.8 6.24e-06   4.5 1.00e+00 1.00e+00f  1
 135  2.1130433e+01 6.14e-10 1.13e-01  -3.8 1.15e-05   4.0 1.00e+00 1.00e+00f  1
 136  2.1130434e+01 1.70e-09 6.23e-02  -3.8 1.91e-05   3.5 1.00e+00 1.00e+00f  1
 137  2.1130436e+01 8.12e-09 4.41e-02  -3.8 4.04e-05   3.0 1.00e+00 1.00e+00h  1
 138  2.1130439e+01 4.06e-08 3.23e-02  -3.8 8.89e-05   2.6 1.00e+00 1.00e+00h  1
 139  2.1130440e+01 1.56e-07 2.06e-02  -3.8 1.70e-04   2.1 1.00e+00 1.00e+00h  1
iter    objective    inf_pr   inf_du lg(mu)  ||d||  lg(rg) alpha_du alpha_pr  ls
 140  2.1130426e+01 5.12e-07 1.22e-02  -3.8 3.02e-04   1.6 1.00e+00 1.00e+00h  1
 141  2.1130351e+01 1.62e-06 7.02e-03  -3.8 5.22e-04   1.1 1.00e+00 1.00e+00h  1
 142  2.1130064e+01 7.94e-06 4.27e-03  -3.8 9.52e-04   0.7 1.00e+00 1.00e+00h  1
 143  2.1129124e+01 2.91e-05 3.83e-03  -3.8 2.56e-03   0.2 1.00e+00 1.00e+00h  1
 144  2.1126211e+01 2.33e-04 3.80e-03  -3.8 7.63e-03  -0.3 1.00e+00 1.00e+00h  1
 145  2.1117547e+01 2.10e-03 3.73e-03  -3.8 2.25e-02  -0.8 1.00e+00 1.00e+00h  1
 146  2.1103750e+01 6.85e-03 7.63e-03  -3.8 6.11e-02  -1.3 1.00e+00 5.79e-01h  1
 147  2.1063515e+01 5.34e-02 4.84e-02  -3.8 1.69e-01  -1.7 4.32e-01 8.05e-01f  1
 148  2.1041308e+01 2.48e-02 5.88e-03  -3.8 1.21e-01  -1.3 1.00e+00 9.53e-01h  1
 149  2.1008586e+01 6.02e+00 5.21e-02  -3.8 4.62e+00  -1.8 6.41e-02 1.38e-01h  1
iter    objective    inf_pr   inf_du lg(mu)  ||d||  lg(rg) alpha_du alpha_pr  ls
 150  2.0980607e+01 5.68e+00 7.76e-02  -3.8 5.15e+00  -2.3 3.47e-01 5.63e-02h  1
 151  2.0695292e+01 2.90e+00 2.43e-01  -3.8 5.23e+00  -2.7 3.13e-02 4.80e-01h  1
 152  2.0529620e+01 2.44e+00 2.03e-01  -3.8 8.84e+00  -3.2 2.65e-01 1.58e-01h  1
 153  2.0448773e+01 2.61e+00 1.75e-01  -3.8 5.90e+00  -2.8 1.66e-01 1.40e-01h  1
 154  2.0371116e+01 2.37e+00 1.52e-01  -3.8 5.51e+00  -3.3 2.80e-01 9.16e-02h  1
 155  2.0147088e+01 1.09e+00 7.43e-02  -3.8 1.90e+00  -2.8 4.26e-01 5.44e-01h  1
 156  1.9997457e+01 3.42e+00 5.88e-02  -3.8 1.31e+01  -3.3 3.54e-01 2.35e-01h  1
 157  1.9983148e+01 3.20e+00 5.76e-02  -3.8 3.45e+00  -2.9 9.28e-01 6.53e-02h  1
 158  1.9906689e+01 3.18e+00 4.98e-01  -3.8 2.93e+00  -2.5 1.00e+00 8.61e-01h  1
 159  1.9875252e+01 7.72e+00 5.25e-01  -3.8 5.73e+00  -2.0 8.97e-01 6.56e-01h  1
iter    objective    inf_pr   inf_du lg(mu)  ||d||  lg(rg) alpha_du alpha_pr  ls
 160  1.9876788e+01 6.05e+00 7.54e-01  -3.8 1.14e+00   0.2 1.45e-01 1.10e-01h  1
 161  1.9892688e+01 5.79e+00 1.73e+00  -3.8 1.47e+00  -0.3 6.19e-01 4.54e-01h  1
 162  1.9904860e+01 4.58e+00 2.97e+00  -3.8 1.54e+00  -0.8 8.26e-01 5.00e-01h  2
 163  1.9913403e+01 1.33e+00 6.58e-01  -3.8 1.22e+00  -1.2 1.00e+00 1.00e+00h  1
 164  1.9911477e+01 1.45e-01 5.05e-01  -3.8 3.60e-01  -0.8 1.00e+00 1.00e+00h  1
 165  1.9912140e+01 1.08e-01 4.08e-01  -3.8 6.28e-02   0.5 1.00e+00 3.04e-01h  1
 166  1.9913655e+01 1.75e-02 1.09e-01  -3.8 5.56e-02   0.0 1.00e+00 1.00e+00h  1
 167  1.9911542e+01 2.33e-04 1.92e-02  -3.8 2.36e-02  -0.4 1.00e+00 1.00e+00h  1
 168  1.9905477e+01 1.58e-02 7.41e-03  -3.8 6.11e-02  -0.9 1.00e+00 1.00e+00h  1
 169  1.9891972e+01 2.55e-02 6.33e-03  -3.8 1.57e-01  -1.4 1.00e+00 1.00e+00h  1
iter    objective    inf_pr   inf_du lg(mu)  ||d||  lg(rg) alpha_du alpha_pr  ls
 170  1.9863903e+01 1.40e-01 4.92e-03  -3.8 3.32e-01  -1.9 1.00e+00 1.00e+00h  1
 171  1.9812031e+01 4.48e-01 1.64e-01  -3.8 5.06e-01  -2.3 1.00e+00 9.19e-01h  1
 172  1.9745236e+01 9.27e-01 2.00e-01  -3.8 1.52e+00  -2.8 2.02e-01 6.86e-01h  1
 173  1.9746461e+01 1.45e-01 2.74e-02  -3.8 4.85e-01  -1.5 9.32e-01 1.00e+00h  1
 174  1.9733434e+01 7.96e-01 2.69e-02  -3.8 8.64e+01    -  2.62e-02 1.59e-02h  1
 175  1.9641657e+01 8.48e-01 7.71e-02  -3.8 1.34e+01    -  6.71e-02 1.56e-01h  1
 176  1.9641084e+01 1.27e+00 4.82e-02  -3.8 1.18e+00  -2.0 2.78e-01 2.80e-01h  1
 177  1.9640115e+01 1.19e+00 4.23e-01  -3.8 3.91e+00  -1.5 1.76e-01 6.44e-02h  1
 178  1.9630937e+01 1.31e+00 4.15e-01  -3.8 1.95e+01    -  3.16e-02 1.68e-02h  1
 179  1.9619689e+01 2.91e+00 4.14e-01  -3.8 6.51e+02    -  1.75e-03 3.98e-03h  1
iter    objective    inf_pr   inf_du lg(mu)  ||d||  lg(rg) alpha_du alpha_pr  ls
 180  1.9615034e+01 1.89e+00 3.79e-01  -3.8 9.59e-01  -2.0 7.25e-02 3.35e-01h  1
 181  1.9603218e+01 2.09e+00 3.71e-01  -3.8 2.53e+01    -  9.11e-02 2.68e-02h  1
 182  1.9562657e+01 2.11e+00 3.19e-01  -3.8 1.78e+01    -  1.31e-01 1.39e-01h  1
 183  1.9525583e+01 1.69e+00 2.94e-01  -3.8 1.90e+01    -  5.18e-01 2.41e-01h  1
 184  1.9476541e+01 1.13e+00 1.48e-01  -3.8 3.69e+00    -  3.81e-01 7.62e-01h  1
 185  1.9478246e+01 1.01e+00 1.15e-01  -3.8 7.89e-01  -0.7 1.06e-01 8.10e-02h  1
 186  1.9482855e+01 2.20e+00 1.32e+00  -3.8 5.93e-01  -0.3 4.14e-01 2.22e-01h  1
 187  1.9487819e+01 1.59e+00 8.60e-01  -3.8 4.78e-01  -0.7 4.09e-01 2.59e-01h  1
 188  1.9501668e+01 4.04e-01 3.37e-01  -3.8 4.39e-01  -1.2 2.19e-01 1.00e+00h  1
 189  1.9500581e+01 2.29e-01 2.29e-01  -3.8 9.04e-02  -1.7 1.00e+00 5.13e-01h  1
iter    objective    inf_pr   inf_du lg(mu)  ||d||  lg(rg) alpha_du alpha_pr  ls
 190  1.9498253e+01 1.55e-01 4.31e-02  -3.8 2.49e-01  -2.2 1.00e+00 1.00e+00h  1
 191  1.9498310e+01 9.40e-02 1.94e-02  -3.8 3.02e-02  -0.8 1.00e+00 1.00e+00h  1
 192  1.9498113e+01 6.87e-02 5.15e-02  -3.8 7.03e-02  -0.4 4.91e-01 5.05e-01h  1
 193  1.9498408e+01 5.23e-03 2.63e-02  -3.8 4.50e-02  -0.9 1.00e+00 1.00e+00f  1
 194  1.9497868e+01 1.30e-03 3.10e-03  -3.8 2.96e-02  -1.4 1.00e+00 1.00e+00h  1
 195  1.9493048e+01 5.54e-02 1.48e-02  -3.8 8.42e+00    -  6.79e-01 1.76e-01h  1
 196  1.9492938e+01 3.39e-03 2.59e-03  -3.8 1.85e-01  -1.9 1.00e+00 1.00e+00h  1
 197  1.9491240e+01 3.38e-02 4.05e-03  -3.8 2.51e+00    -  2.45e-01 2.77e-01h  1
 198  1.9485012e+01 2.55e+00 2.90e-02  -3.8 3.46e+00    -  5.87e-01 8.92e-01h  1
 199  1.9488085e+01 4.12e+00 1.15e+00  -3.8 9.69e-01  -1.4 1.76e-01 6.75e-01h  1
iter    objective    inf_pr   inf_du lg(mu)  ||d||  lg(rg) alpha_du alpha_pr  ls
 200  1.9487482e+01 2.40e+00 4.48e-01  -3.8 9.23e-01  -1.0 1.00e+00 2.88e-01h  1
 201  1.9486274e+01 1.64e+00 1.23e-01  -3.8 4.90e-01  -1.5 9.95e-01 6.55e-01h  1
 202  1.9484871e+01 2.82e+00 2.60e+00  -3.8 3.28e-01  -0.2 8.07e-01 8.49e-01h  1
 203  1.9484967e+01 2.38e+00 2.14e+00  -3.8 7.52e-01  -0.6 3.29e-01 1.50e-01h  1
 204  1.9486077e+01 6.47e-01 1.35e-01  -3.8 6.29e-01  -1.1 1.00e+00 6.66e-01h  1
 205  1.9482643e+01 1.41e+00 3.38e-02  -3.8 9.12e-01    -  1.00e+00 8.52e-01h  1
 206  1.9482887e+01 4.48e-01 1.30e-02  -3.8 6.90e-02  -1.6 1.00e+00 1.00e+00h  1
 207  1.9482653e+01 6.21e-02 3.93e-03  -3.8 7.56e-02  -2.1 1.00e+00 1.00e+00h  1
 208  1.9481826e+01 1.99e-01 1.04e-03  -3.8 1.91e-01  -2.5 1.00e+00 1.00e+00h  1
 209  1.9480377e+01 2.92e-01 2.11e-03  -3.8 5.21e-01  -3.0 1.00e+00 1.00e+00h  1
iter    objective    inf_pr   inf_du lg(mu)  ||d||  lg(rg) alpha_du alpha_pr  ls
 210  1.9473623e+01 2.22e+00 1.48e-02  -3.8 3.88e+00  -3.5 1.00e+00 1.00e+00h  1
 211  1.9476575e+01 1.44e+00 1.79e-01  -3.8 1.25e+00  -1.3 9.61e-02 1.00e+00h  1
 212  1.9479844e+01 4.66e-01 2.94e+00  -3.8 2.40e-01   0.1 4.45e-01 1.00e+00h  1
 213  1.9481184e+01 4.84e-02 2.83e-01  -3.8 1.45e-01  -0.4 1.00e+00 1.00e+00h  1
 214  1.9480501e+01 6.91e-03 2.14e-02  -3.8 2.00e-02  -0.9 1.00e+00 1.00e+00h  1
 215  1.9470566e+01 9.99e-02 3.02e-02  -3.8 1.54e+00    -  1.00e+00 3.01e-01h  1
 216  1.9469431e+01 3.87e-02 1.13e-02  -3.8 1.70e-01    -  1.00e+00 7.51e-01h  1
 217  1.9469902e+01 1.59e-02 1.92e-03  -3.8 4.95e-02    -  1.00e+00 1.00e+00h  1
 218  1.9469899e+01 9.10e-04 1.17e-04  -3.8 1.37e-02    -  1.00e+00 1.00e+00h  1
 219  1.9462972e+01 1.27e-01 3.07e-03  -5.7 4.43e-01    -  9.37e-01 7.47e-01h  1
iter    objective    inf_pr   inf_du lg(mu)  ||d||  lg(rg) alpha_du alpha_pr  ls
 220  1.9461251e+01 4.64e-02 6.16e-03  -5.7 3.48e-01    -  9.53e-01 6.38e-01h  1
 221  1.9460738e+01 5.86e-02 2.65e-03  -5.7 2.85e-01    -  5.40e-01 5.65e-01h  1
 222  1.9460677e+01 5.67e-02 4.56e-02  -5.7 3.74e+00    -  2.16e-01 3.27e-02h  1
 223  1.9460474e+01 2.71e-03 4.68e-04  -5.7 9.94e-03  -1.4 1.00e+00 1.00e+00h  1
 224  1.9460414e+01 2.37e-03 4.35e-02  -5.7 2.93e-01    -  1.00e+00 1.56e-01h  1
 225  1.9460308e+01 1.08e-02 4.04e-03  -5.7 9.05e-02    -  1.00e+00 8.73e-01f  1
 226  1.9460298e+01 3.28e-02 1.17e-03  -5.7 1.52e-02    -  1.00e+00 1.00e+00f  1
 227  1.9460293e+01 5.44e-02 1.47e-03  -5.7 3.03e-02    -  1.00e+00 1.00e+00h  1
 228  1.9460280e+01 1.34e-01 3.54e-03  -5.7 5.29e-02    -  1.00e+00 1.00e+00h  1
 229  1.9460254e+01 1.19e-01 1.95e-03  -5.7 6.62e-02    -  1.00e+00 1.00e+00h  1
iter    objective    inf_pr   inf_du lg(mu)  ||d||  lg(rg) alpha_du alpha_pr  ls
 230  1.9460254e+01 2.09e-01 4.93e-03  -5.7 8.30e-02    -  1.00e+00 1.00e+00h  1
 231  1.9460172e+01 2.59e-01 7.53e-03  -5.7 1.23e-01    -  1.00e+00 1.00e+00h  1
 232  1.9460062e+01 6.27e-01 1.32e-02  -5.7 2.36e-01    -  1.00e+00 1.00e+00h  1
 233  1.9459257e+01 3.14e-01 8.66e-03  -5.7 2.68e-01    -  7.97e-01 1.00e+00h  1
 234  1.9459036e+01 1.12e+00 2.61e-02  -5.7 5.67e-01    -  1.00e+00 5.86e-01h  1
 235  1.9456616e+01 4.40e-01 9.53e-03  -5.7 3.98e-01    -  1.00e+00 1.00e+00h  1
 236  1.9458542e+01 3.22e-02 9.43e-03  -5.7 1.91e-01  -1.8 3.41e-01 1.00e+00h  1
 237  1.9458711e+01 2.80e-02 1.27e-02  -5.7 1.99e-01    -  1.00e+00 1.30e-01h  1
 238  1.9459450e+01 1.41e-02 7.38e-03  -5.7 1.36e-01    -  1.00e+00 5.00e-01h  2
 239  1.9460436e+01 5.32e-04 4.88e-03  -5.7 1.09e-01    -  1.00e+00 1.00e+00H  1
iter    objective    inf_pr   inf_du lg(mu)  ||d||  lg(rg) alpha_du alpha_pr  ls
 240  1.9460786e+01 1.16e-04 9.62e-03  -5.7 1.35e-01    -  1.00e+00 1.00e+00H  1
 241  1.9460378e+01 9.94e-03 9.91e-03  -5.7 2.30e+00    -  4.37e-01 1.93e-02h  4
 242  1.9460336e+01 2.86e-03 8.53e-03  -5.7 1.38e-01    -  1.00e+00 1.25e-01h  4
 243  1.9460215e+01 1.57e-02 8.64e-04  -5.7 1.09e-01    -  1.00e+00 1.00e+00h  1
 244  1.9460304e+01 1.57e-03 3.25e-04  -5.7 1.80e-02    -  1.00e+00 1.00e+00h  1
 245  1.9460303e+01 4.35e-04 1.46e-04  -5.7 1.59e-02    -  1.00e+00 1.00e+00h  1
 246  1.9460303e+01 2.18e-04 2.80e-05  -5.7 7.70e-03    -  1.00e+00 1.00e+00h  1
 247  1.9460303e+01 4.28e-05 6.11e-06  -5.7 1.86e-03    -  1.00e+00 1.00e+00h  1
 248  1.9460303e+01 8.68e-07 1.07e-07  -5.7 3.09e-04    -  1.00e+00 1.00e+00h  1
 249  1.9460203e+01 2.81e-05 1.04e-06  -7.0 1.30e-02    -  1.00e+00 1.00e+00h  1
iter    objective    inf_pr   inf_du lg(mu)  ||d||  lg(rg) alpha_du alpha_pr  ls
 250  1.9460203e+01 8.80e-07 8.10e-09  -7.0 1.81e-03    -  1.00e+00 1.00e+00h  1

Number of Iterations....: 250

                                   (scaled)                 (unscaled)
Objective...............:   1.9460202534214240e+01    1.9460202534214240e+01
Dual infeasibility......:   8.1043074328901964e-09    8.1043074328901964e-09
Constraint violation....:   8.7958826089362674e-07    8.7958826089362674e-07
Variable bound violation:   0.0000000000000000e+00    0.0000000000000000e+00
Complementarity.........:   1.2243665017447508e-07    1.2243665017447508e-07
Overall NLP error.......:   8.7958826089362674e-07    8.7958826089362674e-07


Number of objective function evaluations             = 392
Number of objective gradient evaluations             = 251
Number of equality constraint evaluations            = 392
Number of inequality constraint evaluations          = 392
Number of equality constraint Jacobian evaluations   = 251
Number of inequality constraint Jacobian evaluations = 251
Number of Lagrangian Hessian evaluations             = 250
Total seconds in IPOPT                               = 32.559

EXIT: Optimal Solution Found.
      solver  :   t_proc      (avg)   t_wall      (avg)    n_eval
       nlp_f  |  10.40ms ( 26.53us)  10.46ms ( 26.68us)       392
       nlp_g  |   1.29 s (  3.28ms)   1.29 s (  3.30ms)       392
  nlp_grad_f  |  10.72ms ( 42.55us)  10.78ms ( 42.79us)       252
  nlp_hess_l  |  21.92 s ( 87.69ms)  22.02 s ( 88.07ms)       250
   nlp_jac_g  |   5.81 s ( 23.05ms)   5.84 s ( 23.16ms)       252
       total  |  32.42 s ( 32.42 s)  32.56 s ( 32.56 s)         1
  Success: True
  Cost: 19.4602
  Iterations: 250
  Solve time: 39.08 s
  Max obstacle slack: 0.0000e+00
  Min obstacle clearance: inf m
  Accepted: True

Accepted attempt: baseline

Generating plots...
  Saved: /run/media/saveas/Secondary-Storage/Masters/CS234/CS234_Reinforcement_Learning/Final Project/CS234_Final_Project/results/trajectory_optimization/nlp/TRACK3_300m/base/ipopt_single_stage_trajectory.png
  Saved: /run/media/saveas/Secondary-Storage/Masters/CS234/CS234_Reinforcement_Learning/Final Project/CS234_Final_Project/results/trajectory_optimization/nlp/TRACK3_300m/base/ipopt_single_stage_states.png
  Saved: /run/media/saveas/Secondary-Storage/Masters/CS234/CS234_Reinforcement_Learning/Final Project/CS234_Final_Project/results/trajectory_optimization/nlp/TRACK3_300m/base/ipopt_single_stage_controls.png

Generating animation...
  Saved: /run/media/saveas/Secondary-Storage/Masters/CS234/CS234_Reinforcement_Learning/Final Project/CS234_Final_Project/results/trajectory_optimization/nlp/TRACK3_300m/base/ipopt_single_stage_animation.gif

======================================================================
SUMMARY
======================================================================
Selected attempt: baseline
Attempt                    N      Subs   Clear    Iters    Time [s]   Cost [s]   Max Sigma    Min Clear [m]  Accepted
-----------------------------------------------------------------------------------------------------------------------------
baseline                   120    7      0.000    250      39.08      19.4602    0.000e+00    inf            True

All outputs saved to: /run/media/saveas/Secondary-Storage/Masters/CS234/CS234_Reinforcement_Learning/Final Project/CS234_Final_Project/results/trajectory_optimization/nlp/TRACK3_300m/base
